(set-option :produce-models true)
(set-logic QF_UF)
(declare-fun p0() Bool)
(declare-fun p10() Bool)
(declare-fun p9() Bool)
(declare-fun p7() Bool)
(declare-fun p19() Bool)
(declare-fun p14() Bool)
(declare-fun p13() Bool)
(declare-fun p4() Bool)
(declare-fun p3() Bool)
(declare-fun p17() Bool)
(declare-fun p11() Bool)
(declare-fun p18() Bool)
(declare-fun p5() Bool)
(declare-fun p2() Bool)
(declare-fun p12() Bool)
(declare-fun p15() Bool)
(declare-fun p8() Bool)
(declare-fun p1() Bool)
(declare-fun p6() Bool)
(declare-fun p16() Bool)
(assert
(and (or (not p0) p10 p9) (or p7 (not p19) p0) (or p14 (not p19) (not p9)) (or (not p13) (not p10) (not p9)) (or (not p19) p19 (not p4)) (or p19 p3 p17) (or p14 (not p19) p14) (or p11 (not p7) (not p11)) (or p0 (not p18) (not p10)) (or (not p5) (not p2) (not p13)) (or p5 (not p12) p2) (or (not p3) p11 (not p9)) (or p7 (not p15) (not p8)) (or (not p2) (not p9) (not p3)) (or (not p15) (not p7) p5) (or p14 (not p5) p14) (or (not p9) (not p1) p6) (or (not p2) (not p18) p18) (or (not p11) p10 (not p13)) (or (not p8) (not p2) p1) (or (not p3) (not p11) p19) (or (not p12) (not p1) p10) (or (not p9) (not p10) p10) (or p2 p5 (not p6)) (or p17 (not p8) p19) (or p11 p1 p13) (or (not p3) (not p14) p1) (or (not p12) (not p0) (not p5)) (or (not p16) (not p3) (not p14)) (or (not p5) (not p12) p12) (or p0 p9 (not p8)) (or (not p12) (not p4) p6) (or (not p5) p0 (not p3)) (or p18 (not p9) (not p5)) (or p17 (not p19) (not p16)) (or (not p19) (not p5) (not p1)) (or p2 p10 (not p2)) (or p2 p6 (not p2)) (or (not p9) p4 (not p19)) (or p2 (not p6) (not p13)) (or (not p15) p9 p16) (or p18 (not p11) p8) (or (not p0) p6 (not p13)) (or (not p14) (not p19) p4) (or (not p17) p12 (not p14)) (or p13 p4 p7) (or p12 (not p14) p19) (or p5 (not p13) p17) (or (not p7) p9 p1) (or p19 (not p0) p18) (or p16 (not p9) (not p7)) (or p4 (not p12) p5) (or (not p9) p5 (not p5)) (or p19 p3 (not p0)) (or (not p15) (not p4) (not p7)) (or p6 p9 (not p4)) (or p16 (not p15) (not p3)) (or (not p17) p18 p17) (or (not p5) p11 p0) (or p0 p15 p8) (or (not p8) (not p8) (not p9)) (or (not p11) p18 p4) (or p5 p14 (not p11)) (or (not p0) (not p0) p1) (or (not p8) p1 (not p17)) (or p0 (not p18) p17) (or (not p19) p15 p4) (or p5 (not p9) p9) (or (not p7) (not p14) p3) (or p0 (not p10) p11) (or (not p12) (not p5) (not p19)) (or p7 (not p18) p19) (or p11 p3 p9) (or p0 (not p13) p0) (or (not p5) p9 p12) (or p19 p16 (not p2)) (or (not p17) (not p13) p0) (or p6 (not p17) (not p9)) (or p9 (not p8) (not p11)) (or p18 (not p12) p19) (or p17 (not p14) (not p18)) (or (not p17) p6 (not p11)) (or p3 (not p9) p9) (or (not p15) p13 p16) (or p8 p2 p14) (or (not p14) (not p4) (not p7)) (or p3 (not p9) (not p5)))
)
(check-sat)
(get-model)
